c nIsolatedPIs 12
c maxPI 18
p cnf 250 697
c gate 19 3 11 0
3 -19 0
11 -19 0
-3 -11 19 0
c gate 20 4 10 0
4 -20 0
10 -20 0
-4 -10 20 0
c gate 21 19 20 0
19 -21 0
20 -21 0
-19 -20 21 0
c gate 22 2 12 0
2 -22 0
12 -22 0
-2 -12 22 0
c gate 23 -19 -20 0
-19 -23 0
-20 -23 0
19 20 23 0
c gate 24 -21 -23 0
-21 -24 0
-23 -24 0
21 23 24 0
c gate 25 22 24 0
22 -25 0
24 -25 0
-22 -24 25 0
c gate 26 -21 -25 0
-21 -26 0
-25 -26 0
21 25 26 0
c gate 27 3 12 0
3 -27 0
12 -27 0
-3 -12 27 0
c gate 28 4 11 0
4 -28 0
11 -28 0
-4 -11 28 0
c gate 29 5 10 0
5 -29 0
10 -29 0
-5 -10 29 0
c gate 30 -28 -29 0
-28 -30 0
-29 -30 0
28 29 30 0
c gate 31 28 29 0
28 -31 0
29 -31 0
-28 -29 31 0
c gate 32 -30 -31 0
-30 -32 0
-31 -32 0
30 31 32 0
c gate 33 -27 -32 0
-27 -33 0
-32 -33 0
27 32 33 0
c gate 34 27 32 0
27 -34 0
32 -34 0
-27 -32 34 0
c gate 35 -33 -34 0
-33 -35 0
-34 -35 0
33 34 35 0
c gate 36 -26 35 0
-26 -36 0
35 -36 0
26 -35 36 0
c gate 37 1 14 0
1 -37 0
14 -37 0
-1 -14 37 0
c gate 38 2 13 0
2 -38 0
13 -38 0
-2 -13 38 0
c gate 39 -37 -38 0
-37 -39 0
-38 -39 0
37 38 39 0
c gate 40 37 38 0
37 -40 0
38 -40 0
-37 -38 40 0
c gate 41 -39 -40 0
-39 -41 0
-40 -41 0
39 40 41 0
c gate 42 26 -35 0
26 -42 0
-35 -42 0
-26 35 42 0
c gate 43 -36 -42 0
-36 -43 0
-42 -43 0
36 42 43 0
c gate 44 41 43 0
41 -44 0
43 -44 0
-41 -43 44 0
c gate 45 -36 -44 0
-36 -45 0
-44 -45 0
36 44 45 0
c gate 46 1 15 0
1 -46 0
15 -46 0
-1 -15 46 0
c gate 47 2 14 0
2 -47 0
14 -47 0
-2 -14 47 0
c gate 48 3 13 0
3 -48 0
13 -48 0
-3 -13 48 0
c gate 49 -47 -48 0
-47 -49 0
-48 -49 0
47 48 49 0
c gate 50 47 48 0
47 -50 0
48 -50 0
-47 -48 50 0
c gate 51 -49 -50 0
-49 -51 0
-50 -51 0
49 50 51 0
c gate 52 46 51 0
46 -52 0
51 -52 0
-46 -51 52 0
c gate 53 -46 -51 0
-46 -53 0
-51 -53 0
46 51 53 0
c gate 54 -52 -53 0
-52 -54 0
-53 -54 0
52 53 54 0
c gate 55 -31 -34 0
-31 -55 0
-34 -55 0
31 34 55 0
c gate 56 4 12 0
4 -56 0
12 -56 0
-4 -12 56 0
c gate 57 5 11 0
5 -57 0
11 -57 0
-5 -11 57 0
c gate 58 6 10 0
6 -58 0
10 -58 0
-6 -10 58 0
c gate 59 57 58 0
57 -59 0
58 -59 0
-57 -58 59 0
c gate 60 -57 -58 0
-57 -60 0
-58 -60 0
57 58 60 0
c gate 61 -59 -60 0
-59 -61 0
-60 -61 0
59 60 61 0
c gate 62 56 61 0
56 -62 0
61 -62 0
-56 -61 62 0
c gate 63 -56 -61 0
-56 -63 0
-61 -63 0
56 61 63 0
c gate 64 -62 -63 0
-62 -64 0
-63 -64 0
62 63 64 0
c gate 65 -55 64 0
-55 -65 0
64 -65 0
55 -64 65 0
c gate 66 55 -64 0
55 -66 0
-64 -66 0
-55 64 66 0
c gate 67 -65 -66 0
-65 -67 0
-66 -67 0
65 66 67 0
c gate 68 54 67 0
54 -68 0
67 -68 0
-54 -67 68 0
c gate 69 -54 -67 0
-54 -69 0
-67 -69 0
54 67 69 0
c gate 70 -68 -69 0
-68 -70 0
-69 -70 0
68 69 70 0
c gate 71 -45 70 0
-45 -71 0
70 -71 0
45 -70 71 0
c gate 72 45 -70 0
45 -72 0
-70 -72 0
-45 70 72 0
c gate 73 -71 -72 0
-71 -73 0
-72 -73 0
71 72 73 0
c gate 74 40 73 0
40 -74 0
73 -74 0
-40 -73 74 0
c gate 75 -71 -74 0
-71 -75 0
-74 -75 0
71 74 75 0
c gate 76 1 16 0
1 -76 0
16 -76 0
-1 -16 76 0
c gate 77 -50 -52 0
-50 -77 0
-52 -77 0
50 52 77 0
c gate 78 76 -77 0
76 -78 0
-77 -78 0
-76 77 78 0
c gate 79 -76 77 0
-76 -79 0
77 -79 0
76 -77 79 0
c gate 80 -78 -79 0
-78 -80 0
-79 -80 0
78 79 80 0
c gate 81 -65 -68 0
-65 -81 0
-68 -81 0
65 68 81 0
c gate 82 2 15 0
2 -82 0
15 -82 0
-2 -15 82 0
c gate 83 4 13 0
4 -83 0
13 -83 0
-4 -13 83 0
c gate 84 3 14 0
3 -84 0
14 -84 0
-3 -14 84 0
c gate 85 -83 -84 0
-83 -85 0
-84 -85 0
83 84 85 0
c gate 86 83 84 0
83 -86 0
84 -86 0
-83 -84 86 0
c gate 87 -85 -86 0
-85 -87 0
-86 -87 0
85 86 87 0
c gate 88 82 87 0
82 -88 0
87 -88 0
-82 -87 88 0
c gate 89 -82 -87 0
-82 -89 0
-87 -89 0
82 87 89 0
c gate 90 -88 -89 0
-88 -90 0
-89 -90 0
88 89 90 0
c gate 91 -59 -62 0
-59 -91 0
-62 -91 0
59 62 91 0
c gate 92 5 12 0
5 -92 0
12 -92 0
-5 -12 92 0
c gate 93 7 10 0
7 -93 0
10 -93 0
-7 -10 93 0
c gate 94 6 11 0
6 -94 0
11 -94 0
-6 -11 94 0
c gate 95 93 94 0
93 -95 0
94 -95 0
-93 -94 95 0
c gate 96 -93 -94 0
-93 -96 0
-94 -96 0
93 94 96 0
c gate 97 -95 -96 0
-95 -97 0
-96 -97 0
95 96 97 0
c gate 98 92 97 0
92 -98 0
97 -98 0
-92 -97 98 0
c gate 99 -92 -97 0
-92 -99 0
-97 -99 0
92 97 99 0
c gate 100 -98 -99 0
-98 -100 0
-99 -100 0
98 99 100 0
c gate 101 -91 100 0
-91 -101 0
100 -101 0
91 -100 101 0
c gate 102 91 -100 0
91 -102 0
-100 -102 0
-91 100 102 0
c gate 103 -101 -102 0
-101 -103 0
-102 -103 0
101 102 103 0
c gate 104 90 103 0
90 -104 0
103 -104 0
-90 -103 104 0
c gate 105 -90 -103 0
-90 -105 0
-103 -105 0
90 103 105 0
c gate 106 -104 -105 0
-104 -106 0
-105 -106 0
104 105 106 0
c gate 107 -81 106 0
-81 -107 0
106 -107 0
81 -106 107 0
c gate 108 81 -106 0
81 -108 0
-106 -108 0
-81 106 108 0
c gate 109 -107 -108 0
-107 -109 0
-108 -109 0
107 108 109 0
c gate 110 80 109 0
80 -110 0
109 -110 0
-80 -109 110 0
c gate 111 -80 -109 0
-80 -111 0
-109 -111 0
80 109 111 0
c gate 112 -110 -111 0
-110 -112 0
-111 -112 0
110 111 112 0
c gate 113 -75 112 0
-75 -113 0
112 -113 0
75 -112 113 0
c gate 114 -107 -110 0
-107 -114 0
-110 -114 0
107 110 114 0
c gate 115 -101 -104 0
-101 -115 0
-104 -115 0
101 104 115 0
c gate 116 -95 -98 0
-95 -116 0
-98 -116 0
95 98 116 0
c gate 117 8 10 0
8 -117 0
10 -117 0
-8 -10 117 0
c gate 118 7 11 0
7 -118 0
11 -118 0
-7 -11 118 0
c gate 119 -117 -118 0
-117 -119 0
-118 -119 0
117 118 119 0
c gate 120 117 118 0
117 -120 0
118 -120 0
-117 -118 120 0
c gate 121 -119 -120 0
-119 -121 0
-120 -121 0
119 120 121 0
c gate 122 6 12 0
6 -122 0
12 -122 0
-6 -12 122 0
c gate 123 121 -122 0
121 -123 0
-122 -123 0
-121 122 123 0
c gate 124 -121 122 0
-121 -124 0
122 -124 0
121 -122 124 0
c gate 125 -123 -124 0
-123 -125 0
-124 -125 0
123 124 125 0
c gate 126 116 125 0
116 -126 0
125 -126 0
-116 -125 126 0
c gate 127 -116 -125 0
-116 -127 0
-125 -127 0
116 125 127 0
c gate 128 -126 -127 0
-126 -128 0
-127 -128 0
126 127 128 0
c gate 129 3 15 0
3 -129 0
15 -129 0
-3 -15 129 0
c gate 130 5 13 0
5 -130 0
13 -130 0
-5 -13 130 0
c gate 131 4 14 0
4 -131 0
14 -131 0
-4 -14 131 0
c gate 132 -130 -131 0
-130 -132 0
-131 -132 0
130 131 132 0
c gate 133 130 131 0
130 -133 0
131 -133 0
-130 -131 133 0
c gate 134 -132 -133 0
-132 -134 0
-133 -134 0
132 133 134 0
c gate 135 129 134 0
129 -135 0
134 -135 0
-129 -134 135 0
c gate 136 -129 -134 0
-129 -136 0
-134 -136 0
129 134 136 0
c gate 137 -135 -136 0
-135 -137 0
-136 -137 0
135 136 137 0
c gate 138 128 -137 0
128 -138 0
-137 -138 0
-128 137 138 0
c gate 139 -128 137 0
-128 -139 0
137 -139 0
128 -137 139 0
c gate 140 -138 -139 0
-138 -140 0
-139 -140 0
138 139 140 0
c gate 141 115 140 0
115 -141 0
140 -141 0
-115 -140 141 0
c gate 142 -115 -140 0
-115 -142 0
-140 -142 0
115 140 142 0
c gate 143 -141 -142 0
-141 -143 0
-142 -143 0
141 142 143 0
c gate 144 2 16 0
2 -144 0
16 -144 0
-2 -16 144 0
c gate 145 1 17 0
1 -145 0
17 -145 0
-1 -17 145 0
c gate 146 144 145 0
144 -146 0
145 -146 0
-144 -145 146 0
c gate 147 -144 -145 0
-144 -147 0
-145 -147 0
144 145 147 0
c gate 148 -146 -147 0
-146 -148 0
-147 -148 0
146 147 148 0
c gate 149 -86 -88 0
-86 -149 0
-88 -149 0
86 88 149 0
c gate 150 148 -149 0
148 -150 0
-149 -150 0
-148 149 150 0
c gate 151 -148 149 0
-148 -151 0
149 -151 0
148 -149 151 0
c gate 152 -150 -151 0
-150 -152 0
-151 -152 0
150 151 152 0
c gate 153 143 -152 0
143 -153 0
-152 -153 0
-143 152 153 0
c gate 154 -143 152 0
-143 -154 0
152 -154 0
143 -152 154 0
c gate 155 -153 -154 0
-153 -155 0
-154 -155 0
153 154 155 0
c gate 156 -114 -155 0
-114 -156 0
-155 -156 0
114 155 156 0
c gate 157 114 155 0
114 -157 0
155 -157 0
-114 -155 157 0
c gate 158 -156 -157 0
-156 -158 0
-157 -158 0
156 157 158 0
c gate 159 78 158 0
78 -159 0
158 -159 0
-78 -158 159 0
c gate 160 -78 -158 0
-78 -160 0
-158 -160 0
78 158 160 0
c gate 161 -159 -160 0
-159 -161 0
-160 -161 0
159 160 161 0
c gate 162 113 161 0
113 -162 0
161 -162 0
-113 -161 162 0
c gate 163 -156 -159 0
-156 -163 0
-159 -163 0
156 159 163 0
c gate 164 1 18 0
1 -164 0
18 -164 0
-1 -18 164 0
c gate 165 3 16 0
3 -165 0
16 -165 0
-3 -16 165 0
c gate 166 2 17 0
2 -166 0
17 -166 0
-2 -17 166 0
c gate 167 165 166 0
165 -167 0
166 -167 0
-165 -166 167 0
c gate 168 -165 -166 0
-165 -168 0
-166 -168 0
165 166 168 0
c gate 169 -167 -168 0
-167 -169 0
-168 -169 0
167 168 169 0
c gate 170 164 169 0
164 -170 0
169 -170 0
-164 -169 170 0
c gate 171 -164 -169 0
-164 -171 0
-169 -171 0
164 169 171 0
c gate 172 -170 -171 0
-170 -172 0
-171 -172 0
170 171 172 0
c gate 173 -133 -135 0
-133 -173 0
-135 -173 0
133 135 173 0
c gate 174 172 -173 0
172 -174 0
-173 -174 0
-172 173 174 0
c gate 175 -172 173 0
-172 -175 0
173 -175 0
172 -173 175 0
c gate 176 -174 -175 0
-174 -176 0
-175 -176 0
174 175 176 0
c gate 177 146 176 0
146 -177 0
176 -177 0
-146 -176 177 0
c gate 178 -146 -176 0
-146 -178 0
-176 -178 0
146 176 178 0
c gate 179 -177 -178 0
-177 -179 0
-178 -179 0
177 178 179 0
c gate 180 4 15 0
4 -180 0
15 -180 0
-4 -15 180 0
c gate 181 6 13 0
6 -181 0
13 -181 0
-6 -13 181 0
c gate 182 5 14 0
5 -182 0
14 -182 0
-5 -14 182 0
c gate 183 -181 -182 0
-181 -183 0
-182 -183 0
181 182 183 0
c gate 184 181 182 0
181 -184 0
182 -184 0
-181 -182 184 0
c gate 185 -183 -184 0
-183 -185 0
-184 -185 0
183 184 185 0
c gate 186 180 185 0
180 -186 0
185 -186 0
-180 -185 186 0
c gate 187 -180 -185 0
-180 -187 0
-185 -187 0
180 185 187 0
c gate 188 -186 -187 0
-186 -188 0
-187 -188 0
186 187 188 0
c gate 189 7 12 0
7 -189 0
12 -189 0
-7 -12 189 0
c gate 190 9 10 0
9 -190 0
10 -190 0
-9 -10 190 0
c gate 191 8 11 0
8 -191 0
11 -191 0
-8 -11 191 0
c gate 192 190 191 0
190 -192 0
191 -192 0
-190 -191 192 0
c gate 193 -190 -191 0
-190 -193 0
-191 -193 0
190 191 193 0
c gate 194 -192 -193 0
-192 -194 0
-193 -194 0
192 193 194 0
c gate 195 189 194 0
189 -195 0
194 -195 0
-189 -194 195 0
c gate 196 -189 -194 0
-189 -196 0
-194 -196 0
189 194 196 0
c gate 197 -195 -196 0
-195 -197 0
-196 -197 0
195 196 197 0
c gate 198 -119 -123 0
-119 -198 0
-123 -198 0
119 123 198 0
c gate 199 197 198 0
197 -199 0
198 -199 0
-197 -198 199 0
c gate 200 -197 -198 0
-197 -200 0
-198 -200 0
197 198 200 0
c gate 201 -199 -200 0
-199 -201 0
-200 -201 0
199 200 201 0
c gate 202 188 201 0
188 -202 0
201 -202 0
-188 -201 202 0
c gate 203 -188 -201 0
-188 -203 0
-201 -203 0
188 201 203 0
c gate 204 -202 -203 0
-202 -204 0
-203 -204 0
202 203 204 0
c gate 205 -126 -138 0
-126 -205 0
-138 -205 0
126 138 205 0
c gate 206 204 205 0
204 -206 0
205 -206 0
-204 -205 206 0
c gate 207 -204 -205 0
-204 -207 0
-205 -207 0
204 205 207 0
c gate 208 -206 -207 0
-206 -208 0
-207 -208 0
206 207 208 0
c gate 209 179 208 0
179 -209 0
208 -209 0
-179 -208 209 0
c gate 210 -179 -208 0
-179 -210 0
-208 -210 0
179 208 210 0
c gate 211 -209 -210 0
-209 -211 0
-210 -211 0
209 210 211 0
c gate 212 -141 -153 0
-141 -212 0
-153 -212 0
141 153 212 0
c gate 213 211 212 0
211 -213 0
212 -213 0
-211 -212 213 0
c gate 214 -211 -212 0
-211 -214 0
-212 -214 0
211 212 214 0
c gate 215 -213 -214 0
-213 -215 0
-214 -215 0
213 214 215 0
c gate 216 150 215 0
150 -216 0
215 -216 0
-150 -215 216 0
c gate 217 -150 -215 0
-150 -217 0
-215 -217 0
150 215 217 0
c gate 218 -216 -217 0
-216 -218 0
-217 -218 0
216 217 218 0
c gate 219 -163 218 0
-163 -219 0
218 -219 0
163 -218 219 0
c gate 220 163 -218 0
163 -220 0
-218 -220 0
-163 218 220 0
c gate 221 -219 -220 0
-219 -221 0
-220 -221 0
219 220 221 0
c gate 222 162 221 0
162 -222 0
221 -222 0
-162 -221 222 0
c gate 223 -162 -221 0
-162 -223 0
-221 -223 0
162 221 223 0
c gate 224 -222 -223 0
-222 -224 0
-223 -224 0
222 223 224 0
c gate 225 -22 -24 0
-22 -225 0
-24 -225 0
22 24 225 0
c gate 226 -25 -225 0
-25 -226 0
-225 -226 0
25 225 226 0
c gate 227 3 10 0
3 -227 0
10 -227 0
-3 -10 227 0
c gate 228 2 11 0
2 -228 0
11 -228 0
-2 -11 228 0
c gate 229 227 228 0
227 -229 0
228 -229 0
-227 -228 229 0
c gate 230 -227 -228 0
-227 -230 0
-228 -230 0
227 228 230 0
c gate 231 1 12 0
1 -231 0
12 -231 0
-1 -12 231 0
c gate 232 -230 231 0
-230 -232 0
231 -232 0
230 -231 232 0
c gate 233 -229 -232 0
-229 -233 0
-232 -233 0
229 232 233 0
c gate 234 226 -233 0
226 -234 0
-233 -234 0
-226 233 234 0
c gate 235 1 13 0
1 -235 0
13 -235 0
-1 -13 235 0
c gate 236 -226 233 0
-226 -236 0
233 -236 0
226 -233 236 0
c gate 237 -234 -236 0
-234 -237 0
-236 -237 0
234 236 237 0
c gate 238 235 237 0
235 -238 0
237 -238 0
-235 -237 238 0
c gate 239 -234 -238 0
-234 -239 0
-238 -239 0
234 238 239 0
c gate 240 -41 -43 0
-41 -240 0
-43 -240 0
41 43 240 0
c gate 241 -44 -240 0
-44 -241 0
-240 -241 0
44 240 241 0
c gate 242 -239 241 0
-239 -242 0
241 -242 0
239 -241 242 0
c gate 243 75 -112 0
75 -243 0
-112 -243 0
-75 112 243 0
c gate 244 -40 -73 0
-40 -244 0
-73 -244 0
40 73 244 0
c gate 245 -74 -244 0
-74 -245 0
-244 -245 0
74 244 245 0
c gate 246 -113 245 0
-113 -246 0
245 -246 0
113 -245 246 0
c gate 247 -243 246 0
-243 -247 0
246 -247 0
243 -246 247 0
c gate 248 242 247 0
242 -248 0
247 -248 0
-242 -247 248 0
c gate 249 161 248 0
161 -249 0
248 -249 0
-161 -248 249 0
c gate 250 224 249 0
224 -250 0
249 -250 0
-224 -249 250 0
c PO
250 0
